Route #1: 0 8 21 32 5 10 12 36 0
Route #2: 0 37 14 46 20 34 33 0
Route #3: 0 42 31 26 3 17 2 0
Route #4: 0 51 15 11 38 53 0
Route #5: 0 40 16 47 39 49 9 35 0
Route #6: 0 6 1 45 43 0
Route #7: 0 18 48 50 44 24 52 23 0
Route #8: 0 22 19 27 13 54 28 0
Route #9: 0 29 41 25 30 7 4 0
Cost 1159:
